% Auto-generated by scripts/generate_dzn.py
% problem_type   = nonogram
% instance       = nonogram_30
% source_json    = instances_json/0_low_blowup/nonogram_30.json
% blowup         = 1.0784753363228698
% representation = NFA

mode = 1;

height = 15;
width = 20;
Q = 19;
S = 2;
row_q0 = [1, 1, 1, 1, 1, 1, 1, 1, 1, 1, 1, 1, 1, 1, 1];
row_F = [{14}, {16}, {14}, {18}, {16}, {12}, {17}, {19}, {12}, {13}, {13}, {16}, {15}, {16}, {14}];
col_q0 = [1, 1, 1, 1, 1, 1, 1, 1, 1, 1, 1, 1, 1, 1, 1, 1, 1, 1, 1, 1];
col_F = [{7}, {12}, {8}, {14}, {11}, {12}, {13}, {14}, {14}, {10}, {12}, {13}, {10}, {7}, {12}, {9}, {10}, {10}, {12}, {11}];
row_d_dfa = array3d(1..15, 1..19, 1..2, [
  % k = 1
    0, 0,
    0, 0,
    0, 0,
    0, 0,
    0, 0,
    0, 0,
    0, 0,
    0, 0,
    0, 0,
    0, 0,
    0, 0,
    0, 0,
    0, 0,
    0, 0,
    0, 0,
    0, 0,
    0, 0,
    0, 0,
    0, 0,

  % k = 2
    0, 0,
    0, 0,
    0, 0,
    0, 0,
    0, 0,
    0, 0,
    0, 0,
    0, 0,
    0, 0,
    0, 0,
    0, 0,
    0, 0,
    0, 0,
    0, 0,
    0, 0,
    0, 0,
    0, 0,
    0, 0,
    0, 0,

  % k = 3
    0, 0,
    0, 0,
    0, 0,
    0, 0,
    0, 0,
    0, 0,
    0, 0,
    0, 0,
    0, 0,
    0, 0,
    0, 0,
    0, 0,
    0, 0,
    0, 0,
    0, 0,
    0, 0,
    0, 0,
    0, 0,
    0, 0,

  % k = 4
    0, 0,
    0, 0,
    0, 0,
    0, 0,
    0, 0,
    0, 0,
    0, 0,
    0, 0,
    0, 0,
    0, 0,
    0, 0,
    0, 0,
    0, 0,
    0, 0,
    0, 0,
    0, 0,
    0, 0,
    0, 0,
    0, 0,

  % k = 5
    0, 0,
    0, 0,
    0, 0,
    0, 0,
    0, 0,
    0, 0,
    0, 0,
    0, 0,
    0, 0,
    0, 0,
    0, 0,
    0, 0,
    0, 0,
    0, 0,
    0, 0,
    0, 0,
    0, 0,
    0, 0,
    0, 0,

  % k = 6
    0, 0,
    0, 0,
    0, 0,
    0, 0,
    0, 0,
    0, 0,
    0, 0,
    0, 0,
    0, 0,
    0, 0,
    0, 0,
    0, 0,
    0, 0,
    0, 0,
    0, 0,
    0, 0,
    0, 0,
    0, 0,
    0, 0,

  % k = 7
    0, 0,
    0, 0,
    0, 0,
    0, 0,
    0, 0,
    0, 0,
    0, 0,
    0, 0,
    0, 0,
    0, 0,
    0, 0,
    0, 0,
    0, 0,
    0, 0,
    0, 0,
    0, 0,
    0, 0,
    0, 0,
    0, 0,

  % k = 8
    0, 0,
    0, 0,
    0, 0,
    0, 0,
    0, 0,
    0, 0,
    0, 0,
    0, 0,
    0, 0,
    0, 0,
    0, 0,
    0, 0,
    0, 0,
    0, 0,
    0, 0,
    0, 0,
    0, 0,
    0, 0,
    0, 0,

  % k = 9
    0, 0,
    0, 0,
    0, 0,
    0, 0,
    0, 0,
    0, 0,
    0, 0,
    0, 0,
    0, 0,
    0, 0,
    0, 0,
    0, 0,
    0, 0,
    0, 0,
    0, 0,
    0, 0,
    0, 0,
    0, 0,
    0, 0,

  % k = 10
    0, 0,
    0, 0,
    0, 0,
    0, 0,
    0, 0,
    0, 0,
    0, 0,
    0, 0,
    0, 0,
    0, 0,
    0, 0,
    0, 0,
    0, 0,
    0, 0,
    0, 0,
    0, 0,
    0, 0,
    0, 0,
    0, 0,

  % k = 11
    0, 0,
    0, 0,
    0, 0,
    0, 0,
    0, 0,
    0, 0,
    0, 0,
    0, 0,
    0, 0,
    0, 0,
    0, 0,
    0, 0,
    0, 0,
    0, 0,
    0, 0,
    0, 0,
    0, 0,
    0, 0,
    0, 0,

  % k = 12
    0, 0,
    0, 0,
    0, 0,
    0, 0,
    0, 0,
    0, 0,
    0, 0,
    0, 0,
    0, 0,
    0, 0,
    0, 0,
    0, 0,
    0, 0,
    0, 0,
    0, 0,
    0, 0,
    0, 0,
    0, 0,
    0, 0,

  % k = 13
    0, 0,
    0, 0,
    0, 0,
    0, 0,
    0, 0,
    0, 0,
    0, 0,
    0, 0,
    0, 0,
    0, 0,
    0, 0,
    0, 0,
    0, 0,
    0, 0,
    0, 0,
    0, 0,
    0, 0,
    0, 0,
    0, 0,

  % k = 14
    0, 0,
    0, 0,
    0, 0,
    0, 0,
    0, 0,
    0, 0,
    0, 0,
    0, 0,
    0, 0,
    0, 0,
    0, 0,
    0, 0,
    0, 0,
    0, 0,
    0, 0,
    0, 0,
    0, 0,
    0, 0,
    0, 0,

  % k = 15
    0, 0,
    0, 0,
    0, 0,
    0, 0,
    0, 0,
    0, 0,
    0, 0,
    0, 0,
    0, 0,
    0, 0,
    0, 0,
    0, 0,
    0, 0,
    0, 0,
    0, 0,
    0, 0,
    0, 0,
    0, 0,
    0, 0
]);
row_d_nfa = array3d(1..15, 1..19, 1..2, [
  % k = 1
    {1}, {2},
    {3}, {},
    {3}, {4},
    {5}, {},
    {5}, {6},
    {}, {7},
    {8}, {},
    {8}, {9},
    {}, {10},
    {}, {11},
    {}, {12},
    {13}, {},
    {13}, {14},
    {14}, {},
    {}, {},
    {}, {},
    {}, {},
    {}, {},
    {}, {},

  % k = 2
    {1}, {2},
    {}, {3},
    {4}, {},
    {4}, {5},
    {6}, {},
    {6}, {7},
    {}, {8},
    {}, {9},
    {10}, {},
    {10}, {11},
    {12}, {},
    {12}, {13},
    {14}, {},
    {14}, {15},
    {}, {16},
    {16}, {},
    {}, {},
    {}, {},
    {}, {},

  % k = 3
    {1}, {2},
    {}, {3},
    {4}, {},
    {4}, {5},
    {6}, {},
    {6}, {7},
    {8}, {},
    {8}, {9},
    {10}, {},
    {10}, {11},
    {12}, {},
    {12}, {13},
    {}, {14},
    {14}, {},
    {}, {},
    {}, {},
    {}, {},
    {}, {},
    {}, {},

  % k = 4
    {1}, {2},
    {3}, {},
    {3}, {4},
    {}, {5},
    {}, {6},
    {7}, {},
    {7}, {8},
    {}, {9},
    {10}, {},
    {10}, {11},
    {}, {12},
    {13}, {},
    {13}, {14},
    {15}, {},
    {15}, {16},
    {17}, {},
    {17}, {18},
    {18}, {},
    {}, {},

  % k = 5
    {1}, {2},
    {3}, {},
    {3}, {4},
    {}, {5},
    {}, {6},
    {}, {7},
    {}, {8},
    {}, {9},
    {10}, {},
    {10}, {11},
    {12}, {},
    {12}, {13},
    {}, {14},
    {15}, {},
    {15}, {16},
    {16}, {},
    {}, {},
    {}, {},
    {}, {},

  % k = 6
    {1}, {2},
    {3}, {},
    {3}, {4},
    {5}, {},
    {5}, {6},
    {7}, {},
    {7}, {8},
    {}, {9},
    {}, {10},
    {11}, {},
    {11}, {12},
    {12}, {},
    {}, {},
    {}, {},
    {}, {},
    {}, {},
    {}, {},
    {}, {},
    {}, {},

  % k = 7
    {1}, {2},
    {3}, {},
    {3}, {4},
    {5}, {},
    {5}, {6},
    {}, {7},
    {8}, {},
    {8}, {9},
    {}, {10},
    {}, {11},
    {}, {12},
    {13}, {},
    {13}, {14},
    {}, {15},
    {}, {16},
    {}, {17},
    {17}, {},
    {}, {},
    {}, {},

  % k = 8
    {1}, {2},
    {3}, {},
    {3}, {4},
    {}, {5},
    {}, {6},
    {}, {7},
    {}, {8},
    {}, {9},
    {}, {10},
    {}, {11},
    {}, {12},
    {13}, {},
    {13}, {14},
    {}, {15},
    {16}, {},
    {16}, {17},
    {}, {18},
    {}, {19},
    {19}, {},

  % k = 9
    {1}, {2},
    {}, {3},
    {4}, {},
    {4}, {5},
    {6}, {},
    {6}, {7},
    {}, {8},
    {9}, {},
    {9}, {10},
    {11}, {},
    {11}, {12},
    {12}, {},
    {}, {},
    {}, {},
    {}, {},
    {}, {},
    {}, {},
    {}, {},
    {}, {},

  % k = 10
    {1}, {2},
    {3}, {},
    {3}, {4},
    {5}, {},
    {5}, {6},
    {7}, {},
    {7}, {8},
    {}, {9},
    {10}, {},
    {10}, {11},
    {12}, {},
    {12}, {13},
    {13}, {},
    {}, {},
    {}, {},
    {}, {},
    {}, {},
    {}, {},
    {}, {},

  % k = 11
    {1}, {2},
    {}, {3},
    {4}, {},
    {4}, {5},
    {}, {6},
    {}, {7},
    {8}, {},
    {8}, {9},
    {}, {10},
    {11}, {},
    {11}, {12},
    {}, {13},
    {13}, {},
    {}, {},
    {}, {},
    {}, {},
    {}, {},
    {}, {},
    {}, {},

  % k = 12
    {1}, {2},
    {}, {3},
    {}, {4},
    {}, {5},
    {6}, {},
    {6}, {7},
    {}, {8},
    {}, {9},
    {10}, {},
    {10}, {11},
    {12}, {},
    {12}, {13},
    {14}, {},
    {14}, {15},
    {}, {16},
    {16}, {},
    {}, {},
    {}, {},
    {}, {},

  % k = 13
    {1}, {2},
    {3}, {},
    {3}, {4},
    {}, {5},
    {6}, {},
    {6}, {7},
    {}, {8},
    {9}, {},
    {9}, {10},
    {}, {11},
    {12}, {},
    {12}, {13},
    {14}, {},
    {14}, {15},
    {15}, {},
    {}, {},
    {}, {},
    {}, {},
    {}, {},

  % k = 14
    {1}, {2},
    {}, {3},
    {}, {4},
    {5}, {},
    {5}, {6},
    {}, {7},
    {8}, {},
    {8}, {9},
    {10}, {},
    {10}, {11},
    {}, {12},
    {13}, {},
    {13}, {14},
    {15}, {},
    {15}, {16},
    {16}, {},
    {}, {},
    {}, {},
    {}, {},

  % k = 15
    {1}, {2},
    {}, {3},
    {4}, {},
    {4}, {5},
    {6}, {},
    {6}, {7},
    {8}, {},
    {8}, {9},
    {10}, {},
    {10}, {11},
    {}, {12},
    {}, {13},
    {}, {14},
    {14}, {},
    {}, {},
    {}, {},
    {}, {},
    {}, {},
    {}, {}
]);
col_d_dfa = array3d(1..20, 1..19, 1..2, [
  % k = 1
    0, 0,
    0, 0,
    0, 0,
    0, 0,
    0, 0,
    0, 0,
    0, 0,
    0, 0,
    0, 0,
    0, 0,
    0, 0,
    0, 0,
    0, 0,
    0, 0,
    0, 0,
    0, 0,
    0, 0,
    0, 0,
    0, 0,

  % k = 2
    0, 0,
    0, 0,
    0, 0,
    0, 0,
    0, 0,
    0, 0,
    0, 0,
    0, 0,
    0, 0,
    0, 0,
    0, 0,
    0, 0,
    0, 0,
    0, 0,
    0, 0,
    0, 0,
    0, 0,
    0, 0,
    0, 0,

  % k = 3
    0, 0,
    0, 0,
    0, 0,
    0, 0,
    0, 0,
    0, 0,
    0, 0,
    0, 0,
    0, 0,
    0, 0,
    0, 0,
    0, 0,
    0, 0,
    0, 0,
    0, 0,
    0, 0,
    0, 0,
    0, 0,
    0, 0,

  % k = 4
    0, 0,
    0, 0,
    0, 0,
    0, 0,
    0, 0,
    0, 0,
    0, 0,
    0, 0,
    0, 0,
    0, 0,
    0, 0,
    0, 0,
    0, 0,
    0, 0,
    0, 0,
    0, 0,
    0, 0,
    0, 0,
    0, 0,

  % k = 5
    0, 0,
    0, 0,
    0, 0,
    0, 0,
    0, 0,
    0, 0,
    0, 0,
    0, 0,
    0, 0,
    0, 0,
    0, 0,
    0, 0,
    0, 0,
    0, 0,
    0, 0,
    0, 0,
    0, 0,
    0, 0,
    0, 0,

  % k = 6
    0, 0,
    0, 0,
    0, 0,
    0, 0,
    0, 0,
    0, 0,
    0, 0,
    0, 0,
    0, 0,
    0, 0,
    0, 0,
    0, 0,
    0, 0,
    0, 0,
    0, 0,
    0, 0,
    0, 0,
    0, 0,
    0, 0,

  % k = 7
    0, 0,
    0, 0,
    0, 0,
    0, 0,
    0, 0,
    0, 0,
    0, 0,
    0, 0,
    0, 0,
    0, 0,
    0, 0,
    0, 0,
    0, 0,
    0, 0,
    0, 0,
    0, 0,
    0, 0,
    0, 0,
    0, 0,

  % k = 8
    0, 0,
    0, 0,
    0, 0,
    0, 0,
    0, 0,
    0, 0,
    0, 0,
    0, 0,
    0, 0,
    0, 0,
    0, 0,
    0, 0,
    0, 0,
    0, 0,
    0, 0,
    0, 0,
    0, 0,
    0, 0,
    0, 0,

  % k = 9
    0, 0,
    0, 0,
    0, 0,
    0, 0,
    0, 0,
    0, 0,
    0, 0,
    0, 0,
    0, 0,
    0, 0,
    0, 0,
    0, 0,
    0, 0,
    0, 0,
    0, 0,
    0, 0,
    0, 0,
    0, 0,
    0, 0,

  % k = 10
    0, 0,
    0, 0,
    0, 0,
    0, 0,
    0, 0,
    0, 0,
    0, 0,
    0, 0,
    0, 0,
    0, 0,
    0, 0,
    0, 0,
    0, 0,
    0, 0,
    0, 0,
    0, 0,
    0, 0,
    0, 0,
    0, 0,

  % k = 11
    0, 0,
    0, 0,
    0, 0,
    0, 0,
    0, 0,
    0, 0,
    0, 0,
    0, 0,
    0, 0,
    0, 0,
    0, 0,
    0, 0,
    0, 0,
    0, 0,
    0, 0,
    0, 0,
    0, 0,
    0, 0,
    0, 0,

  % k = 12
    0, 0,
    0, 0,
    0, 0,
    0, 0,
    0, 0,
    0, 0,
    0, 0,
    0, 0,
    0, 0,
    0, 0,
    0, 0,
    0, 0,
    0, 0,
    0, 0,
    0, 0,
    0, 0,
    0, 0,
    0, 0,
    0, 0,

  % k = 13
    0, 0,
    0, 0,
    0, 0,
    0, 0,
    0, 0,
    0, 0,
    0, 0,
    0, 0,
    0, 0,
    0, 0,
    0, 0,
    0, 0,
    0, 0,
    0, 0,
    0, 0,
    0, 0,
    0, 0,
    0, 0,
    0, 0,

  % k = 14
    0, 0,
    0, 0,
    0, 0,
    0, 0,
    0, 0,
    0, 0,
    0, 0,
    0, 0,
    0, 0,
    0, 0,
    0, 0,
    0, 0,
    0, 0,
    0, 0,
    0, 0,
    0, 0,
    0, 0,
    0, 0,
    0, 0,

  % k = 15
    0, 0,
    0, 0,
    0, 0,
    0, 0,
    0, 0,
    0, 0,
    0, 0,
    0, 0,
    0, 0,
    0, 0,
    0, 0,
    0, 0,
    0, 0,
    0, 0,
    0, 0,
    0, 0,
    0, 0,
    0, 0,
    0, 0,

  % k = 16
    0, 0,
    0, 0,
    0, 0,
    0, 0,
    0, 0,
    0, 0,
    0, 0,
    0, 0,
    0, 0,
    0, 0,
    0, 0,
    0, 0,
    0, 0,
    0, 0,
    0, 0,
    0, 0,
    0, 0,
    0, 0,
    0, 0,

  % k = 17
    0, 0,
    0, 0,
    0, 0,
    0, 0,
    0, 0,
    0, 0,
    0, 0,
    0, 0,
    0, 0,
    0, 0,
    0, 0,
    0, 0,
    0, 0,
    0, 0,
    0, 0,
    0, 0,
    0, 0,
    0, 0,
    0, 0,

  % k = 18
    0, 0,
    0, 0,
    0, 0,
    0, 0,
    0, 0,
    0, 0,
    0, 0,
    0, 0,
    0, 0,
    0, 0,
    0, 0,
    0, 0,
    0, 0,
    0, 0,
    0, 0,
    0, 0,
    0, 0,
    0, 0,
    0, 0,

  % k = 19
    0, 0,
    0, 0,
    0, 0,
    0, 0,
    0, 0,
    0, 0,
    0, 0,
    0, 0,
    0, 0,
    0, 0,
    0, 0,
    0, 0,
    0, 0,
    0, 0,
    0, 0,
    0, 0,
    0, 0,
    0, 0,
    0, 0,

  % k = 20
    0, 0,
    0, 0,
    0, 0,
    0, 0,
    0, 0,
    0, 0,
    0, 0,
    0, 0,
    0, 0,
    0, 0,
    0, 0,
    0, 0,
    0, 0,
    0, 0,
    0, 0,
    0, 0,
    0, 0,
    0, 0,
    0, 0
]);
col_d_nfa = array3d(1..20, 1..19, 1..2, [
  % k = 1
    {1}, {2},
    {}, {3},
    {}, {4},
    {5}, {},
    {5}, {6},
    {}, {7},
    {7}, {},
    {}, {},
    {}, {},
    {}, {},
    {}, {},
    {}, {},
    {}, {},
    {}, {},
    {}, {},
    {}, {},
    {}, {},
    {}, {},
    {}, {},

  % k = 2
    {1}, {2},
    {}, {3},
    {}, {4},
    {}, {5},
    {6}, {},
    {6}, {7},
    {}, {8},
    {}, {9},
    {}, {10},
    {}, {11},
    {}, {12},
    {12}, {},
    {}, {},
    {}, {},
    {}, {},
    {}, {},
    {}, {},
    {}, {},
    {}, {},

  % k = 3
    {1}, {2},
    {3}, {},
    {3}, {4},
    {}, {5},
    {6}, {},
    {6}, {7},
    {}, {8},
    {8}, {},
    {}, {},
    {}, {},
    {}, {},
    {}, {},
    {}, {},
    {}, {},
    {}, {},
    {}, {},
    {}, {},
    {}, {},
    {}, {},

  % k = 4
    {1}, {2},
    {3}, {},
    {3}, {4},
    {}, {5},
    {6}, {},
    {6}, {7},
    {}, {8},
    {9}, {},
    {9}, {10},
    {11}, {},
    {11}, {12},
    {}, {13},
    {}, {14},
    {14}, {},
    {}, {},
    {}, {},
    {}, {},
    {}, {},
    {}, {},

  % k = 5
    {1}, {2},
    {}, {3},
    {4}, {},
    {4}, {5},
    {}, {6},
    {7}, {},
    {7}, {8},
    {}, {9},
    {10}, {},
    {10}, {11},
    {11}, {},
    {}, {},
    {}, {},
    {}, {},
    {}, {},
    {}, {},
    {}, {},
    {}, {},
    {}, {},

  % k = 6
    {1}, {2},
    {}, {3},
    {}, {4},
    {}, {5},
    {6}, {},
    {6}, {7},
    {}, {8},
    {}, {9},
    {}, {10},
    {11}, {},
    {11}, {12},
    {12}, {},
    {}, {},
    {}, {},
    {}, {},
    {}, {},
    {}, {},
    {}, {},
    {}, {},

  % k = 7
    {1}, {2},
    {}, {3},
    {4}, {},
    {4}, {5},
    {6}, {},
    {6}, {7},
    {}, {8},
    {9}, {},
    {9}, {10},
    {}, {11},
    {12}, {},
    {12}, {13},
    {13}, {},
    {}, {},
    {}, {},
    {}, {},
    {}, {},
    {}, {},
    {}, {},

  % k = 8
    {1}, {2},
    {3}, {},
    {3}, {4},
    {5}, {},
    {5}, {6},
    {7}, {},
    {7}, {8},
    {}, {9},
    {}, {10},
    {}, {11},
    {}, {12},
    {}, {13},
    {}, {14},
    {14}, {},
    {}, {},
    {}, {},
    {}, {},
    {}, {},
    {}, {},

  % k = 9
    {1}, {2},
    {3}, {},
    {3}, {4},
    {}, {5},
    {}, {6},
    {7}, {},
    {7}, {8},
    {9}, {},
    {9}, {10},
    {11}, {},
    {11}, {12},
    {}, {13},
    {}, {14},
    {14}, {},
    {}, {},
    {}, {},
    {}, {},
    {}, {},
    {}, {},

  % k = 10
    {1}, {2},
    {}, {3},
    {4}, {},
    {4}, {5},
    {}, {6},
    {7}, {},
    {7}, {8},
    {}, {9},
    {}, {10},
    {10}, {},
    {}, {},
    {}, {},
    {}, {},
    {}, {},
    {}, {},
    {}, {},
    {}, {},
    {}, {},
    {}, {},

  % k = 11
    {1}, {2},
    {}, {3},
    {4}, {},
    {4}, {5},
    {}, {6},
    {}, {7},
    {}, {8},
    {9}, {},
    {9}, {10},
    {}, {11},
    {}, {12},
    {12}, {},
    {}, {},
    {}, {},
    {}, {},
    {}, {},
    {}, {},
    {}, {},
    {}, {},

  % k = 12
    {1}, {2},
    {3}, {},
    {3}, {4},
    {}, {5},
    {6}, {},
    {6}, {7},
    {}, {8},
    {}, {9},
    {10}, {},
    {10}, {11},
    {}, {12},
    {}, {13},
    {13}, {},
    {}, {},
    {}, {},
    {}, {},
    {}, {},
    {}, {},
    {}, {},

  % k = 13
    {1}, {2},
    {}, {3},
    {4}, {},
    {4}, {5},
    {}, {6},
    {}, {7},
    {}, {8},
    {9}, {},
    {9}, {10},
    {10}, {},
    {}, {},
    {}, {},
    {}, {},
    {}, {},
    {}, {},
    {}, {},
    {}, {},
    {}, {},
    {}, {},

  % k = 14
    {1}, {2},
    {3}, {},
    {3}, {4},
    {5}, {},
    {5}, {6},
    {}, {7},
    {7}, {},
    {}, {},
    {}, {},
    {}, {},
    {}, {},
    {}, {},
    {}, {},
    {}, {},
    {}, {},
    {}, {},
    {}, {},
    {}, {},
    {}, {},

  % k = 15
    {1}, {2},
    {}, {3},
    {}, {4},
    {5}, {},
    {5}, {6},
    {}, {7},
    {}, {8},
    {9}, {},
    {9}, {10},
    {11}, {},
    {11}, {12},
    {12}, {},
    {}, {},
    {}, {},
    {}, {},
    {}, {},
    {}, {},
    {}, {},
    {}, {},

  % k = 16
    {1}, {2},
    {3}, {},
    {3}, {4},
    {5}, {},
    {5}, {6},
    {}, {7},
    {8}, {},
    {8}, {9},
    {9}, {},
    {}, {},
    {}, {},
    {}, {},
    {}, {},
    {}, {},
    {}, {},
    {}, {},
    {}, {},
    {}, {},
    {}, {},

  % k = 17
    {1}, {2},
    {3}, {},
    {3}, {4},
    {5}, {},
    {5}, {6},
    {7}, {},
    {7}, {8},
    {9}, {},
    {9}, {10},
    {10}, {},
    {}, {},
    {}, {},
    {}, {},
    {}, {},
    {}, {},
    {}, {},
    {}, {},
    {}, {},
    {}, {},

  % k = 18
    {1}, {2},
    {3}, {},
    {3}, {4},
    {}, {5},
    {}, {6},
    {7}, {},
    {7}, {8},
    {9}, {},
    {9}, {10},
    {10}, {},
    {}, {},
    {}, {},
    {}, {},
    {}, {},
    {}, {},
    {}, {},
    {}, {},
    {}, {},
    {}, {},

  % k = 19
    {1}, {2},
    {}, {3},
    {4}, {},
    {4}, {5},
    {6}, {},
    {6}, {7},
    {8}, {},
    {8}, {9},
    {}, {10},
    {11}, {},
    {11}, {12},
    {12}, {},
    {}, {},
    {}, {},
    {}, {},
    {}, {},
    {}, {},
    {}, {},
    {}, {},

  % k = 20
    {1}, {2},
    {3}, {},
    {3}, {4},
    {5}, {},
    {5}, {6},
    {7}, {},
    {7}, {8},
    {9}, {},
    {9}, {10},
    {}, {11},
    {11}, {},
    {}, {},
    {}, {},
    {}, {},
    {}, {},
    {}, {},
    {}, {},
    {}, {},
    {}, {}
]);
